db/inputs/11367239242102116912164564842810524692.smt2
(set-logic QF_FP)
(declare-const x0 (_ FloatingPoint 8 24))
(declare-const x1 (_ FloatingPoint 8 24))
(declare-const x2 (_ FloatingPoint 8 24))
(declare-const x3 (_ FloatingPoint 8 24))
(declare-const x4 (_ FloatingPoint 8 24))
(declare-const x5 (_ FloatingPoint 8 24))
(declare-const x6 (_ FloatingPoint 8 24))
(declare-const x7 (_ FloatingPoint 8 24))
(declare-const x8 (_ FloatingPoint 8 24))
(declare-const x9 (_ FloatingPoint 8 24))
(declare-const x10 (_ FloatingPoint 8 24))
(declare-const x11 (_ FloatingPoint 8 24))
(assert (fp.geq (fp.add RNE x10 x10) (fp.mul RNE x2 x5)))
(assert (fp.lt (fp.add RNE x6 x3) (fp.mul RNE x2 x1)))
(assert (fp.gt (fp.sub RNE x0 x4) (fp.div RNE x10 x10)))
(assert (fp.lt (fp.neg x6) (fp.add RNE x10 x9)))
(check-sat)
