db/data/11367239242102116912164564842810524692.z3.out
sat
-------------------
5.425399552
